p tw 43 69
5 6
5 20
10 14
10 20
10 19
14 18
1 15
1 14
6 14
6 9
9 14
9 16
2 19
2 16
12 17
12 15
18 20
8 19
4 9
4 10
4 43
4 11
42 43
24 27
24 26
25 41
25 39
25 31
20 42
29 40
29 34
21 30
21 40
21 31
21 36
21 38
28 33
28 38
28 34
38 43
41 43
41 42
32 42
32 38
32 40
32 36
34 35
22 40
22 23
22 39
22 38
27 33
7 17
7 8
7 9
7 10
7 18
3 13
3 5
31 34
31 36
11 20
11 41
11 16
26 37
23 29
23 30
36 37
30 32
